Assignment1/AOneEnv/Question2/log_files/basicPMF.lp
\ Model ex4
\ LP format - for model browsing. Use MPS format to capture full model detail.
\ Signature: 0xe5efb408e6427448
Maximize
  150 x_1_1 + 170 x_1_2 + 80 x_1_3 + 70 x_1_4 + 50 x_1_5 + 120 x_1_6
   + 100 x_1_7 + 100 x_1_8 + 140 x_1_9 + 80 x_1_10 + 150 x_1_11
   + 180 x_1_12 + 100 x_1_13 + 75 x_1_14 + 80 x_1_15 + 150 x_2_1
   + 170 x_2_2 + 80 x_2_3 + 70 x_2_4 + 50 x_2_5 + 120 x_2_6 + 100 x_2_7
   + 100 x_2_8 + 140 x_2_9 + 80 x_2_10 + 150 x_2_11 + 180 x_2_12
   + 100 x_2_13 + 75 x_2_14 + 80 x_2_15 + 150 x_3_1 + 170 x_3_2 + 80 x_3_3
   + 70 x_3_4 + 50 x_3_5 + 120 x_3_6 + 100 x_3_7 + 100 x_3_8 + 140 x_3_9
   + 80 x_3_10 + 150 x_3_11 + 180 x_3_12 + 100 x_3_13 + 75 x_3_14
   + 80 x_3_15 + 150 x_4_1 + 170 x_4_2 + 80 x_4_3 + 70 x_4_4 + 50 x_4_5
   + 120 x_4_6 + 100 x_4_7 + 100 x_4_8 + 140 x_4_9 + 80 x_4_10 + 150 x_4_11
   + 180 x_4_12 + 100 x_4_13 + 75 x_4_14 + 80 x_4_15 + 150 x_5_1
   + 170 x_5_2 + 80 x_5_3 + 70 x_5_4 + 50 x_5_5 + 120 x_5_6 + 100 x_5_7
   + 100 x_5_8 + 140 x_5_9 + 80 x_5_10 + 150 x_5_11 + 180 x_5_12
   + 100 x_5_13 + 75 x_5_14 + 80 x_5_15 + 150 x_6_1 + 170 x_6_2 + 80 x_6_3
   + 70 x_6_4 + 50 x_6_5 + 120 x_6_6 + 100 x_6_7 + 100 x_6_8 + 140 x_6_9
   + 80 x_6_10 + 150 x_6_11 + 180 x_6_12 + 100 x_6_13 + 75 x_6_14
   + 80 x_6_15 + 150 x_7_1 + 170 x_7_2 + 80 x_7_3 + 70 x_7_4 + 50 x_7_5
   + 120 x_7_6 + 100 x_7_7 + 100 x_7_8 + 140 x_7_9 + 80 x_7_10 + 150 x_7_11
   + 180 x_7_12 + 100 x_7_13 + 75 x_7_14 + 80 x_7_15 + 150 x_8_1
   + 170 x_8_2 + 80 x_8_3 + 70 x_8_4 + 50 x_8_5 + 120 x_8_6 + 100 x_8_7
   + 100 x_8_8 + 140 x_8_9 + 80 x_8_10 + 150 x_8_11 + 180 x_8_12
   + 100 x_8_13 + 75 x_8_14 + 80 x_8_15 + 150 x_9_1 + 170 x_9_2 + 80 x_9_3
   + 70 x_9_4 + 50 x_9_5 + 120 x_9_6 + 100 x_9_7 + 100 x_9_8 + 140 x_9_9
   + 80 x_9_10 + 150 x_9_11 + 180 x_9_12 + 100 x_9_13 + 75 x_9_14
   + 80 x_9_15 + 150 x_10_1 + 170 x_10_2 + 80 x_10_3 + 70 x_10_4
   + 50 x_10_5 + 120 x_10_6 + 100 x_10_7 + 100 x_10_8 + 140 x_10_9
   + 80 x_10_10 + 150 x_10_11 + 180 x_10_12 + 100 x_10_13 + 75 x_10_14
   + 80 x_10_15 + 150 x_11_1 + 170 x_11_2 + 80 x_11_3 + 70 x_11_4
   + 50 x_11_5 + 120 x_11_6 + 100 x_11_7 + 100 x_11_8 + 140 x_11_9
   + 80 x_11_10 + 150 x_11_11 + 180 x_11_12 + 100 x_11_13 + 75 x_11_14
   + 80 x_11_15 + 150 x_12_1 + 170 x_12_2 + 80 x_12_3 + 70 x_12_4
   + 50 x_12_5 + 120 x_12_6 + 100 x_12_7 + 100 x_12_8 + 140 x_12_9
   + 80 x_12_10 + 150 x_12_11 + 180 x_12_12 + 100 x_12_13 + 75 x_12_14
   + 80 x_12_15 + 150 x_13_1 + 170 x_13_2 + 80 x_13_3 + 70 x_13_4
   + 50 x_13_5 + 120 x_13_6 + 100 x_13_7 + 100 x_13_8 + 140 x_13_9
   + 80 x_13_10 + 150 x_13_11 + 180 x_13_12 + 100 x_13_13 + 75 x_13_14
   + 80 x_13_15 + 150 x_14_1 + 170 x_14_2 + 80 x_14_3 + 70 x_14_4
   + 50 x_14_5 + 120 x_14_6 + 100 x_14_7 + 100 x_14_8 + 140 x_14_9
   + 80 x_14_10 + 150 x_14_11 + 180 x_14_12 + 100 x_14_13 + 75 x_14_14
   + 80 x_14_15 + 150 x_15_1 + 170 x_15_2 + 80 x_15_3 + 70 x_15_4
   + 50 x_15_5 + 120 x_15_6 + 100 x_15_7 + 100 x_15_8 + 140 x_15_9
   + 80 x_15_10 + 150 x_15_11 + 180 x_15_12 + 100 x_15_13 + 75 x_15_14
   + 80 x_15_15
Subject To
 cap_102: x_1_1 + x_1_7 + x_2_1 + x_2_7 + x_3_1 + x_3_7 + x_4_1 + x_4_7
   + x_5_1 + x_5_7 + x_6_1 + x_6_7 + x_7_1 + x_7_7 + x_8_1 + x_8_7 + x_9_1
   + x_9_7 + x_10_1 + x_10_7 + x_11_1 + x_11_7 + x_12_1 + x_12_7 + x_13_1
   + x_13_7 + x_14_1 + x_14_7 + x_15_1 + x_15_7 <= 108
 cap_301: x_1_10 + x_1_14 + x_2_10 + x_2_14 + x_3_10 + x_3_14 + x_4_10
   + x_4_14 + x_5_10 + x_5_14 + x_6_10 + x_6_14 + x_7_10 + x_7_14 + x_8_10
   + x_8_14 + x_9_10 + x_9_14 + x_10_10 + x_10_14 + x_11_10 + x_11_14
   + x_12_10 + x_12_14 + x_13_10 + x_13_14 + x_14_10 + x_14_14 + x_15_10
   + x_15_14 <= 144
 cap_201: x_1_5 + x_1_7 + x_1_11 + x_2_5 + x_2_7 + x_2_11 + x_3_5 + x_3_7
   + x_3_11 + x_4_5 + x_4_7 + x_4_11 + x_5_5 + x_5_7 + x_5_11 + x_6_5
   + x_6_7 + x_6_11 + x_7_5 + x_7_7 + x_7_11 + x_8_5 + x_8_7 + x_8_11
   + x_9_5 + x_9_7 + x_9_11 + x_10_5 + x_10_7 + x_10_11 + x_11_5 + x_11_7
   + x_11_11 + x_12_5 + x_12_7 + x_12_11 + x_13_5 + x_13_7 + x_13_11
   + x_14_5 + x_14_7 + x_14_11 + x_15_5 + x_15_7 + x_15_11 <= 144
 cap_104: x_1_2 + x_1_8 + x_2_2 + x_2_8 + x_3_2 + x_3_8 + x_4_2 + x_4_8
   + x_5_2 + x_5_8 + x_6_2 + x_6_8 + x_7_2 + x_7_8 + x_8_2 + x_8_8 + x_9_2
   + x_9_8 + x_10_2 + x_10_8 + x_11_2 + x_11_8 + x_12_2 + x_12_8 + x_13_2
   + x_13_8 + x_14_2 + x_14_8 + x_15_2 + x_15_8 <= 108
 cap_202: x_1_3 + x_1_10 + x_1_13 + x_2_3 + x_2_10 + x_2_13 + x_3_3
   + x_3_10 + x_3_13 + x_4_3 + x_4_10 + x_4_13 + x_5_3 + x_5_10 + x_5_13
   + x_6_3 + x_6_10 + x_6_13 + x_7_3 + x_7_10 + x_7_13 + x_8_3 + x_8_10
   + x_8_13 + x_9_3 + x_9_10 + x_9_13 + x_10_3 + x_10_10 + x_10_13 + x_11_3
   + x_11_10 + x_11_13 + x_12_3 + x_12_10 + x_12_13 + x_13_3 + x_13_10
   + x_13_13 + x_14_3 + x_14_10 + x_14_13 + x_15_3 + x_15_10 + x_15_13
   <= 108
 cap_302: x_1_5 + x_1_9 + x_2_5 + x_2_9 + x_3_5 + x_3_9 + x_4_5 + x_4_9
   + x_5_5 + x_5_9 + x_6_5 + x_6_9 + x_7_5 + x_7_9 + x_8_5 + x_8_9 + x_9_5
   + x_9_9 + x_10_5 + x_10_9 + x_11_5 + x_11_9 + x_12_5 + x_12_9 + x_13_5
   + x_13_9 + x_14_5 + x_14_9 + x_15_5 + x_15_9 <= 108
 cap_303: x_1_15 + x_2_15 + x_3_15 + x_4_15 + x_5_15 + x_6_15 + x_7_15
   + x_8_15 + x_9_15 + x_10_15 + x_11_15 + x_12_15 + x_13_15 + x_14_15
   + x_15_15 <= 144
 cap_204: x_1_4 + x_2_4 + x_3_4 + x_4_4 + x_5_4 + x_6_4 + x_7_4 + x_8_4
   + x_9_4 + x_10_4 + x_11_4 + x_12_4 + x_13_4 + x_14_4 + x_15_4 <= 108
 cap_203: x_1_8 + x_1_12 + x_2_8 + x_2_12 + x_3_8 + x_3_12 + x_4_8 + x_4_12
   + x_5_8 + x_5_12 + x_6_8 + x_6_12 + x_7_8 + x_7_12 + x_8_8 + x_8_12
   + x_9_8 + x_9_12 + x_10_8 + x_10_12 + x_11_8 + x_11_12 + x_12_8
   + x_12_12 + x_13_8 + x_13_12 + x_14_8 + x_14_12 + x_15_8 + x_15_12
   <= 108
 cap_101: x_1_6 + x_1_13 + x_2_6 + x_2_13 + x_3_6 + x_3_13 + x_4_6 + x_4_13
   + x_5_6 + x_5_13 + x_6_6 + x_6_13 + x_7_6 + x_7_13 + x_8_6 + x_8_13
   + x_9_6 + x_9_13 + x_10_6 + x_10_13 + x_11_6 + x_11_13 + x_12_6
   + x_12_13 + x_13_6 + x_13_13 + x_14_6 + x_14_13 + x_15_6 + x_15_13
   <= 108
 recap_1: 10 x_2_1 <= 90
 recap_2: 3.333333333333333 x_1_2 <= 120
 recap_3: 10 x_4_3 <= 70
 recap_4: 5 x_3_4 <= 100
 recap_5: 10 x_3_5 + 5 x_4_5 <= 50
 recap_6: <= 120
 recap_7: 3.333333333333333 x_6_7 <= 80
 recap_8: 10 x_6_8 + 5 x_7_8 <= 70
 recap_9: 10 x_10_9 <= 140
 recap_10: 5 x_9_10 <= 125
 recap_11: 10 x_12_11 <= 50
 recap_12: 2.5 x_11_12 <= 180
 recap_13: 5 x_11_13 + 3.333333333333333 x_12_13 <= 30
 recap_14: 10 x_15_14 <= 75
 recap_15: 5 x_14_15 <= 80
Bounds
Generals
 x_1_1 x_1_2 x_1_3 x_1_4 x_1_5 x_1_6 x_1_7 x_1_8 x_1_9 x_1_10 x_1_11 x_1_12
 x_1_13 x_1_14 x_1_15 x_2_1 x_2_2 x_2_3 x_2_4 x_2_5 x_2_6 x_2_7 x_2_8 x_2_9
 x_2_10 x_2_11 x_2_12 x_2_13 x_2_14 x_2_15 x_3_1 x_3_2 x_3_3 x_3_4 x_3_5
 x_3_6 x_3_7 x_3_8 x_3_9 x_3_10 x_3_11 x_3_12 x_3_13 x_3_14 x_3_15 x_4_1
 x_4_2 x_4_3 x_4_4 x_4_5 x_4_6 x_4_7 x_4_8 x_4_9 x_4_10 x_4_11 x_4_12
 x_4_13 x_4_14 x_4_15 x_5_1 x_5_2 x_5_3 x_5_4 x_5_5 x_5_6 x_5_7 x_5_8 x_5_9
 x_5_10 x_5_11 x_5_12 x_5_13 x_5_14 x_5_15 x_6_1 x_6_2 x_6_3 x_6_4 x_6_5
 x_6_6 x_6_7 x_6_8 x_6_9 x_6_10 x_6_11 x_6_12 x_6_13 x_6_14 x_6_15 x_7_1
 x_7_2 x_7_3 x_7_4 x_7_5 x_7_6 x_7_7 x_7_8 x_7_9 x_7_10 x_7_11 x_7_12
 x_7_13 x_7_14 x_7_15 x_8_1 x_8_2 x_8_3 x_8_4 x_8_5 x_8_6 x_8_7 x_8_8 x_8_9
 x_8_10 x_8_11 x_8_12 x_8_13 x_8_14 x_8_15 x_9_1 x_9_2 x_9_3 x_9_4 x_9_5
 x_9_6 x_9_7 x_9_8 x_9_9 x_9_10 x_9_11 x_9_12 x_9_13 x_9_14 x_9_15 x_10_1
 x_10_2 x_10_3 x_10_4 x_10_5 x_10_6 x_10_7 x_10_8 x_10_9 x_10_10 x_10_11
 x_10_12 x_10_13 x_10_14 x_10_15 x_11_1 x_11_2 x_11_3 x_11_4 x_11_5 x_11_6
 x_11_7 x_11_8 x_11_9 x_11_10 x_11_11 x_11_12 x_11_13 x_11_14 x_11_15
 x_12_1 x_12_2 x_12_3 x_12_4 x_12_5 x_12_6 x_12_7 x_12_8 x_12_9 x_12_10
 x_12_11 x_12_12 x_12_13 x_12_14 x_12_15 x_13_1 x_13_2 x_13_3 x_13_4 x_13_5
 x_13_6 x_13_7 x_13_8 x_13_9 x_13_10 x_13_11 x_13_12 x_13_13 x_13_14
 x_13_15 x_14_1 x_14_2 x_14_3 x_14_4 x_14_5 x_14_6 x_14_7 x_14_8 x_14_9
 x_14_10 x_14_11 x_14_12 x_14_13 x_14_14 x_14_15 x_15_1 x_15_2 x_15_3
 x_15_4 x_15_5 x_15_6 x_15_7 x_15_8 x_15_9 x_15_10 x_15_11 x_15_12 x_15_13
 x_15_14 x_15_15
End
